certificates/rado_a13_c199_N36.drat
-32 -33 -36 0
15 32 -36 0
-33 -35 -36 0
-15 -35 -36 0
-35 -36 0
d -33 -35 -36 0
15 33 -36 0
33 -36 0
d 15 33 -36 0
14 -36 0
-33 -36 0
d -32 -33 -36 0
-36 0
-15 0
11 0
19 0
32 0
-14 0
10 0
18 0
31 0
17 0
0
